<number of tasks>
50

<cycle time>
1000

<order strength>
0.896


<task times>
1 87
2 128
3 164
4 100
5 127
6 113
7 64
8 45
9 66
10 80
11 140
12 374
13 95
14 68
15 318
16 184
17 108
18 86
19 58
20 104
21 86
22 92
23 157
24 57
25 147
26 25
27 20
28 103
29 145
30 233
31 44
32 151
33 27
34 333
35 262
36 31
37 152
38 163
39 196
40 84
41 123
42 223
43 111
44 148
45 102
46 61
47 64
48 52
49 111
50 234

<precedence relations>
1,2
1,3
2,4
2,5
3,4
3,5
4,6
4,7
5,6
5,7
6,8
6,9
6,10
7,8
7,9
7,10
8,11
8,12
8,13
8,14
9,11
9,12
9,13
9,14
10,11
10,12
10,13
10,14
11,15
11,16
12,15
12,16
13,15
13,16
14,15
14,16
15,17
15,18
16,17
16,18
17,19
17,20
18,19
18,20
19,21
19,22
19,23
19,24
20,21
20,22
20,23
20,24
21,25
21,26
21,27
21,28
22,25
22,26
22,27
22,28
23,25
23,26
23,27
23,28
24,25
25,29
25,34
25,39
26,29
26,30
26,31
27,31
28,29
28,30
28,31
29,38
30,32
30,35
31,32
31,33
31,34
32,37
32,38
32,39
33,37
33,39
33,41
34,36
34,37
35,39
36,40
36,41
36,42
37,49
38,40
38,42
39,42
39,43
40,43
40,46
41,44
42,44
42,45
43,47
44,46
46,48
46,49
47,50

<end>
